set K:= 1	2;
set C_H:= 1	2	3;
set C_S:= 4;
set C_F:= 5;
set M:= 6	7	8	9	10	11;
set L_B:= 12	13;
set A1:=
(0,*) 1 2 3 5 6 7 8 9 10 11 12 13 14
(1,*) 0 2 3 5 6 7 8 9 10 11 12 13 14
(2,*) 0 1 3 5 6 7 8 9 10 11 12 13 14
(3,*) 0 1 2 5 6 7 8 9 10 11 12 13 14
(5,*) 0 1 2 3 6 7 8 9 10 11 12 13 14
(6,*) 0 1 2 3 5 7 8 9 10 11 12 13 14
(7,*) 0 1 2 3 5 6 8 9 10 11 12 13 14
(8,*) 0 1 2 3 5 6 7 9 10 11 12 13 14
(9,*) 0 1 2 3 5 6 7 8 10 11 12 13 14
(10,*) 0 1 2 3 5 6 7 8 9 11 12 13 14
(11,*) 0 1 2 3 5 6 7 8 9 10 12 13 14
(12,*) 0 1 2 3 5 6 7 8 9 10 11 13 14
(13,*) 0 1 2 3 5 6 7 8 9 10 11 12 14
(14,*) 0 1 2 3 5 6 7 8 9 10 11 12 13
;
set A2:=
(6,*) 7
(7,*) 6
(8,*) 9
(9,*) 8
;
param BigM:=99999;
param n:= 2;
param d:=
1	18
2	8
3	2
4	12
5	8
;
param Q:=100;
param w:=
[6,*] 7 1.5
[7,*] 6 1.5
[8,*] 9 1.5
[9,*] 8 1.5
;
param V:=
[6,*] 7 93
[7,*] 6 93
[8,*] 9 98
[9,*] 8 98
;
param e:
	6	7	8	9	10	11	12	13:=
4		0		0		1		0		0		0		0		0	
5		0		1		0		0		0		0		0		1	
;
param p:=
1	1
2	1
;
param G:=
6	90
7	93
8	72
9	98
10	80
11	98
12	77
13	82
;
param s:=
0	0
1	10
2	10
3	10
5	10
6	10
7	10
8	10
9	10
10	10
11	10
12	10
13	10
;
param t:
	0	1	2	3	4	5	6	7	8	9	10	11	12	13	14:=
0	0.0	25.71	79.23	21.1	64.03	78.03	20.81	83.49	64.94	61.19	13.0	62.8	43.6	53.04	0.0
1	25.71	0.0	90.48	8.94	38.33	62.29	43.57	72.56	39.32	75.66	38.6	40.31	33.53	44.92	25.71
2	79.23	90.48	0.0	81.6	116.83	82.76	62.29	70.52	114.02	19.92	74.24	96.88	67.01	60.83	79.23
3	21.1	8.94	81.6	0.0	44.78	59.67	36.25	68.01	44.92	66.73	33.14	41.77	27.78	38.91	21.1
4	64.03	38.33	116.83	44.78	0.0	56.22	81.02	73.01	5.39	106.08	76.92	26.0	49.93	58.18	64.03
5	78.03	62.29	82.76	59.67	56.22	0.0	82.28	18.03	51.09	81.49	86.41	30.41	34.93	29.15	78.03
6	20.81	43.57	62.29	36.25	81.02	82.28	0.0	83.24	80.99	43.0	12.0	74.33	47.85	53.85	20.81
7	83.49	72.56	70.52	68.01	73.01	18.03	83.24	0.0	68.07	73.06	89.63	47.01	40.46	30.48	83.49
8	64.94	39.32	114.02	44.92	5.39	51.09	80.99	68.07	0.0	104.0	77.67	21.1	47.01	54.59	64.94
9	61.19	75.66	19.92	66.73	106.08	81.49	43.0	73.06	104.0	0.0	55.0	89.31	58.01	55.04	61.19
10	13.0	38.6	74.24	33.14	76.92	86.41	12.0	89.63	77.67	55.0	0.0	74.17	51.48	59.36	13.0
11	62.8	40.31	96.88	41.77	26.0	30.41	74.33	47.01	21.1	89.31	74.17	0.0	31.38	36.12	62.8
12	43.6	33.53	67.01	27.78	49.93	34.93	47.85	40.46	47.01	58.01	51.48	31.38	0.0	11.4	43.6
13	53.04	44.92	60.83	38.91	58.18	29.15	53.85	30.48	54.59	55.04	59.36	36.12	11.4	0.0	53.04
;
